<number of tasks>
50

<cycle time>
1000

<order strength>
0.197


<task times>
1 464
2 482
3 673
4 546
5 439
6 482
7 409
8 424
9 322
10 484
11 596
12 439
13 418
14 483
15 583
16 569
17 473
18 541
19 533
20 403
21 588
22 394
23 531
24 529
25 512
26 660
27 752
28 437
29 781
30 422
31 661
32 672
33 377
34 469
35 535
36 541
37 474
38 345
39 592
40 281
41 470
42 378
43 485
44 213
45 415
46 824
47 635
48 593
49 799
50 438

<precedence relations>
1,7
1,13
3,8
3,9
4,11
4,12
5,6
5,10
6,15
6,32
8,16
8,21
9,17
9,21
9,37
10,18
11,14
11,19
12,38
13,20
13,43
14,23
14,26
14,27
15,39
15,48
16,28
16,30
17,34
17,41
18,22
18,24
18,31
20,25
20,27
21,29
23,30
23,33
23,35
25,31
25,48
28,34
28,41
29,32
30,36
32,39
34,38
34,40
35,37
36,42
36,43
36,45
38,46
39,41
40,44
40,46
44,50
45,47
45,49
46,48
46,50

<end>
